p tw 117 21061 2 
1 3 
1 4 
1 5 
1 6 
1 7 
1 8 
1 9 
1 10 
1 11 
1 12 
1 13 
1 14 
1 15 
1 16 
1 17 
1 18 
1 19 
1 20 
1 21 
1 22 
1 23 
1 24 
1 25 
1 33 
1 46 
1 51 
1 56 
1 69 
1 84 
1 89 
1 99 
1 103 
1 107 
1 112 
1 114 
2 3 
2 4 
2 5 
2 6 
2 7 
2 8 
2 9 
2 10 
2 11 
2 12 
2 13 
2 14 
2 22 
2 26 
2 27 
2 28 
2 29 
2 30 
2 31 
2 32 
2 33 
2 34 
2 35 
2 36 
2 43 
2 50 
2 57 
2 67 
2 74 
2 94 
2 95 
2 96 
2 97 
2 98 
2 99 
3 4 
3 5 
3 6 
3 7 
3 8 
3 9 
3 10 
3 11 
3 12 
3 13 
3 15 
3 23 
3 26 
3 32 
3 37 
3 38 
3 39 
3 40 
3 41 
3 42 
3 43 
3 44 
3 45 
3 46 
3 47 
3 66 
3 75 
3 81 
3 86 
3 95 
3 104 
3 105 
3 106 
3 107 
4 5 
4 6 
4 7 
4 8 
4 9 
4 10 
4 11 
4 12 
4 13 
4 16 
4 22 
4 27 
4 31 
4 37 
4 40 
4 47 
4 48 
4 49 
4 50 
4 51 
4 52 
4 53 
4 54 
4 55 
4 62 
4 64 
4 87 
4 101 
4 106 
4 110 
4 114 
4 116 
4 117 
5 6 
5 7 
5 8 
5 9 
5 10 
5 11 
5 12 
5 13 
5 17 
5 21 
5 28 
5 31 
5 38 
5 43 
5 47 
5 51 
5 56 
5 57 
5 58 
5 59 
5 60 
5 61 
5 62 
5 63 
5 66 
5 73 
5 79 
5 85 
5 90 
5 91 
5 92 
5 93 
6 7 
6 8 
6 9 
6 10 
6 11 
6 12 
6 13 
6 18 
6 24 
6 28 
6 36 
6 39 
6 44 
6 48 
6 54 
6 63 
6 64 
6 65 
6 66 
6 67 
6 68 
6 69 
6 70 
6 71 
6 72 
6 80 
6 91 
6 98 
6 106 
6 112 
6 113 
7 8 
7 9 
7 10 
7 11 
7 12 
7 13 
7 16 
7 18 
7 29 
7 32 
7 40 
7 42 
7 49 
7 56 
7 59 
7 68 
7 72 
7 73 
7 74 
7 75 
7 76 
7 77 
7 78 
7 80 
7 90 
7 94 
7 100 
7 101 
7 102 
7 103 
8 9 
8 10 
8 11 
8 12 
8 13 
8 19 
8 25 
8 26 
8 30 
8 41 
8 49 
8 54 
8 57 
8 60 
8 64 
8 71 
8 75 
8 79 
8 80 
8 81 
8 82 
8 83 
8 84 
8 85 
8 97 
8 102 
8 109 
8 114 
8 115 
9 10 
9 11 
9 12 
9 13 
9 15 
9 20 
9 30 
9 33 
9 42 
9 50 
9 52 
9 58 
9 60 
9 65 
9 70 
9 72 
9 76 
9 83 
9 85 
9 86 
9 87 
9 88 
9 89 
9 91 
9 94 
9 105 
9 110 
9 111 
10 11 
10 12 
10 13 
10 14 
10 24 
10 27 
10 38 
10 45 
10 48 
10 59 
10 69 
10 76 
10 77 
10 79 
10 82 
10 87 
10 88 
10 90 
10 96 
10 98 
10 104 
10 107 
10 108 
10 109 
10 111 
10 115 
10 116 
11 12 
11 13 
11 21 
11 23 
11 34 
11 35 
11 41 
11 46 
11 53 
11 55 
11 58 
11 61 
11 67 
11 71 
11 73 
11 77 
11 83 
11 88 
11 96 
11 100 
11 102 
11 104 
11 110 
11 112 
11 113 
11 117 
12 13 
12 17 
12 20 
12 29 
12 34 
12 37 
12 39 
12 53 
12 63 
12 70 
12 78 
12 81 
12 82 
12 89 
12 92 
12 93 
12 95 
12 97 
12 101 
12 103 
12 108 
12 111 
12 113 
12 115 
12 117 
13 19 
13 25 
13 35 
13 36 
13 44 
13 45 
13 52 
13 55 
13 61 
13 62 
13 65 
13 68 
13 74 
13 78 
13 84 
13 86 
13 92 
13 93 
13 99 
13 100 
13 105 
13 108 
13 109 
13 116 
14 15 
14 16 
14 17 
14 18 
14 19 
14 20 
14 21 
14 22 
14 23 
14 24 
14 25 
14 26 
14 27 
14 28 
14 29 
14 30 
14 31 
14 32 
14 33 
14 34 
14 35 
14 36 
14 45 
14 48 
14 59 
14 77 
14 79 
14 88 
14 98 
14 107 
14 111 
14 115 
14 116 
15 16 
15 17 
15 18 
15 19 
15 20 
15 21 
15 22 
15 23 
15 24 
15 25 
15 26 
15 33 
15 37 
15 38 
15 39 
15 40 
15 41 
15 42 
15 43 
15 44 
15 45 
15 46 
15 52 
15 60 
15 70 
15 76 
15 83 
15 91 
15 94 
15 105 
15 110 
15 111 
16 17 
16 18 
16 19 
16 20 
16 21 
16 22 
16 23 
16 24 
16 25 
16 27 
16 32 
16 37 
16 42 
16 47 
16 48 
16 49 
16 50 
16 51 
16 52 
16 53 
16 54 
16 55 
16 59 
16 68 
16 80 
16 90 
16 94 
16 100 
16 101 
16 102 
16 103 
17 18 
17 19 
17 20 
17 21 
17 22 
17 23 
17 24 
17 25 
17 28 
17 29 
17 38 
17 39 
17 47 
17 53 
17 56 
17 57 
17 58 
17 59 
17 60 
17 61 
17 62 
17 63 
17 81 
17 89 
17 92 
17 97 
17 101 
17 108 
17 111 
17 113 
18 19 
18 20 
18 21 
18 22 
18 23 
18 24 
18 25 
18 28 
18 29 
18 39 
18 40 
18 48 
18 49 
18 56 
18 64 
18 65 
18 66 
18 67 
18 68 
18 69 
18 70 
18 71 
18 72 
18 73 
18 74 
18 75 
18 76 
18 77 
18 78 
19 20 
19 21 
19 22 
19 23 
19 24 
19 25 
19 30 
19 36 
19 41 
19 45 
19 49 
19 55 
19 57 
19 62 
19 64 
19 65 
19 78 
19 79 
19 80 
19 81 
19 82 
19 83 
19 84 
19 92 
19 99 
19 100 
19 105 
19 109 
20 21 
20 22 
20 23 
20 24 
20 25 
20 30 
20 34 
20 37 
20 42 
20 50 
20 58 
20 63 
20 65 
20 70 
20 72 
20 78 
20 82 
20 85 
20 86 
20 87 
20 88 
20 89 
20 93 
20 95 
20 103 
20 115 
20 117 
21 22 
21 23 
21 24 
21 25 
21 31 
21 35 
21 43 
21 46 
21 51 
21 55 
21 58 
21 66 
21 67 
21 73 
21 77 
21 79 
21 83 
21 85 
21 90 
21 91 
21 92 
21 93 
21 102 
21 104 
21 113 
21 117 
22 23 
22 24 
22 25 
22 31 
22 40 
22 43 
22 50 
22 57 
22 62 
22 64 
22 67 
22 74 
22 87 
22 94 
22 95 
22 96 
22 97 
22 98 
22 99 
22 101 
22 106 
22 110 
22 114 
22 116 
22 117 
23 24 
23 25 
23 32 
23 34 
23 41 
23 47 
23 53 
23 61 
23 66 
23 71 
23 73 
23 75 
23 81 
23 86 
23 88 
23 95 
23 96 
23 100 
23 104 
23 105 
23 106 
23 107 
23 110 
23 112 
24 25 
24 27 
24 36 
24 38 
24 44 
24 54 
24 63 
24 69 
24 72 
24 76 
24 80 
24 82 
24 87 
24 90 
24 91 
24 96 
24 98 
24 104 
24 106 
24 108 
24 109 
24 112 
24 113 
25 26 
25 35 
25 44 
25 52 
25 54 
25 60 
25 61 
25 68 
25 71 
25 74 
25 75 
25 84 
25 85 
25 86 
25 93 
25 97 
25 102 
25 108 
25 109 
25 114 
25 115 
25 116 
26 27 
26 28 
26 29 
26 30 
26 31 
26 32 
26 33 
26 34 
26 35 
26 36 
26 37 
26 38 
26 39 
26 40 
26 41 
26 42 
26 43 
26 44 
26 45 
26 46 
26 54 
26 60 
26 71 
26 75 
26 85 
26 97 
26 102 
26 109 
26 114 
26 115 
27 28 
27 29 
27 30 
27 31 
27 32 
27 33 
27 34 
27 35 
27 36 
27 37 
27 38 
27 47 
27 48 
27 49 
27 50 
27 51 
27 52 
27 53 
27 54 
27 55 
27 69 
27 76 
27 82 
27 87 
27 90 
27 96 
27 104 
27 108 
27 109 
28 29 
28 30 
28 31 
28 32 
28 33 
28 34 
28 35 
28 36 
28 38 
28 39 
28 47 
28 48 
28 56 
28 57 
28 58 
28 59 
28 60 
28 61 
28 62 
28 63 
28 64 
28 65 
28 66 
28 67 
28 68 
28 69 
28 70 
28 71 
29 30 
29 31 
29 32 
29 33 
29 34 
29 35 
29 36 
29 39 
29 40 
29 49 
29 53 
29 56 
29 72 
29 73 
29 74 
29 75 
29 76 
29 77 
29 78 
29 81 
29 89 
29 92 
29 97 
29 101 
29 108 
29 111 
29 113 
30 31 
30 32 
30 33 
30 34 
30 35 
30 36 
30 41 
30 42 
30 49 
30 50 
30 57 
30 58 
30 64 
30 65 
30 72 
30 79 
30 80 
30 81 
30 82 
30 83 
30 84 
30 85 
30 86 
30 87 
30 88 
30 89 
31 32 
31 33 
31 34 
31 35 
31 36 
31 40 
31 43 
31 51 
31 62 
31 64 
31 66 
31 73 
31 79 
31 85 
31 87 
31 90 
31 91 
31 92 
31 93 
31 101 
31 106 
31 110 
31 114 
31 116 
31 117 
32 33 
32 34 
32 35 
32 36 
32 42 
32 47 
32 59 
32 66 
32 68 
32 75 
32 80 
32 81 
32 86 
32 90 
32 94 
32 95 
32 100 
32 101 
32 102 
32 103 
32 104 
32 105 
32 106 
32 107 
33 34 
33 35 
33 36 
33 46 
33 51 
33 52 
33 56 
33 60 
33 69 
33 70 
33 76 
33 83 
33 84 
33 89 
33 91 
33 94 
33 99 
33 103 
33 105 
33 107 
33 110 
33 111 
33 112 
33 114 
34 35 
34 36 
34 37 
34 41 
34 53 
34 61 
34 63 
34 70 
34 71 
34 73 
34 78 
34 82 
34 88 
34 93 
34 95 
34 96 
34 100 
34 103 
34 110 
34 112 
34 115 
34 117 
35 36 
35 44 
35 46 
35 52 
35 55 
35 58 
35 61 
35 67 
35 68 
35 74 
35 77 
35 83 
35 84 
35 86 
35 93 
35 102 
35 104 
35 108 
35 113 
35 116 
35 117 
36 44 
36 45 
36 54 
36 55 
36 62 
36 63 
36 65 
36 72 
36 78 
36 80 
36 91 
36 92 
36 98 
36 99 
36 100 
36 105 
36 106 
36 109 
36 112 
36 113 
37 38 
37 39 
37 40 
37 41 
37 42 
37 43 
37 44 
37 45 
37 46 
37 47 
37 48 
37 49 
37 50 
37 51 
37 52 
37 53 
37 54 
37 55 
37 63 
37 70 
37 78 
37 82 
37 93 
37 95 
37 103 
37 115 
37 117 
38 39 
38 40 
38 41 
38 42 
38 43 
38 44 
38 45 
38 46 
38 47 
38 56 
38 57 
38 58 
38 59 
38 60 
38 61 
38 62 
38 63 
38 69 
38 76 
38 82 
38 87 
38 90 
38 96 
38 104 
38 108 
38 109 
39 40 
39 41 
39 42 
39 43 
39 44 
39 45 
39 46 
39 48 
39 53 
39 64 
39 65 
39 66 
39 67 
39 68 
39 69 
39 70 
39 71 
39 81 
39 89 
39 92 
39 97 
39 101 
39 108 
39 111 
39 113 
40 41 
40 42 
40 43 
40 44 
40 45 
40 46 
40 49 
40 56 
40 62 
40 64 
40 72 
40 73 
40 74 
40 75 
40 76 
40 77 
40 78 
40 87 
40 101 
40 106 
40 110 
40 114 
40 116 
40 117 
41 42 
41 43 
41 44 
41 45 
41 46 
41 49 
41 53 
41 57 
41 61 
41 64 
41 71 
41 73 
41 79 
41 80 
41 81 
41 82 
41 83 
41 84 
41 88 
41 96 
41 100 
41 110 
41 112 
42 43 
42 44 
42 45 
42 46 
42 50 
42 58 
42 59 
42 65 
42 68 
42 72 
42 80 
42 85 
42 86 
42 87 
42 88 
42 89 
42 90 
42 94 
42 100 
42 101 
42 102 
42 103 
43 44 
43 45 
43 46 
43 50 
43 51 
43 57 
43 66 
43 67 
43 73 
43 74 
43 79 
43 85 
43 90 
43 91 
43 92 
43 93 
43 94 
43 95 
43 96 
43 97 
43 98 
43 99 
44 45 
44 46 
44 52 
44 54 
44 61 
44 63 
44 68 
44 72 
44 74 
44 80 
44 84 
44 86 
44 91 
44 93 
44 98 
44 106 
44 108 
44 112 
44 113 
44 116 
45 46 
45 48 
45 55 
45 59 
45 62 
45 65 
45 77 
45 78 
45 79 
45 88 
45 92 
45 98 
45 99 
45 100 
45 105 
45 107 
45 109 
45 111 
45 115 
45 116 
46 51 
46 55 
46 56 
46 58 
46 67 
46 69 
46 77 
46 83 
46 84 
46 89 
46 99 
46 102 
46 103 
46 104 
46 107 
46 112 
46 113 
46 114 
46 117 
47 48 
47 49 
47 50 
47 51 
47 52 
47 53 
47 54 
47 55 
47 56 
47 57 
47 58 
47 59 
47 60 
47 61 
47 62 
47 63 
47 66 
47 75 
47 81 
47 86 
47 95 
47 104 
47 105 
47 106 
47 107 
48 49 
48 50 
48 51 
48 52 
48 53 
48 54 
48 55 
48 59 
48 64 
48 65 
48 66 
48 67 
48 68 
48 69 
48 70 
48 71 
48 77 
48 79 
48 88 
48 98 
48 107 
48 111 
48 115 
48 116 
49 50 
49 51 
49 52 
49 53 
49 54 
49 55 
49 56 
49 57 
49 64 
49 72 
49 73 
49 74 
49 75 
49 76 
49 77 
49 78 
49 79 
49 80 
49 81 
49 82 
49 83 
49 84 
50 51 
50 52 
50 53 
50 54 
50 55 
50 57 
50 58 
50 65 
50 67 
50 72 
50 74 
50 85 
50 86 
50 87 
50 88 
50 89 
50 94 
50 95 
50 96 
50 97 
50 98 
50 99 
51 52 
51 53 
51 54 
51 55 
51 56 
51 66 
51 69 
51 73 
51 79 
51 84 
51 85 
51 89 
51 90 
51 91 
51 92 
51 93 
51 99 
51 103 
51 107 
51 112 
51 114 
52 53 
52 54 
52 55 
52 60 
52 61 
52 68 
52 70 
52 74 
52 76 
52 83 
52 84 
52 86 
52 91 
52 93 
52 94 
52 105 
52 108 
52 110 
52 111 
52 116 
53 54 
53 55 
53 61 
53 71 
53 73 
53 81 
53 88 
53 89 
53 92 
53 96 
53 97 
53 100 
53 101 
53 108 
53 110 
53 111 
53 112 
53 113 
54 55 
54 60 
54 63 
54 71 
54 72 
54 75 
54 80 
54 85 
54 91 
54 97 
54 98 
54 102 
54 106 
54 109 
54 112 
54 113 
54 114 
54 115 
55 58 
55 62 
55 65 
55 67 
55 77 
55 78 
55 83 
55 92 
55 99 
55 100 
55 102 
55 104 
55 105 
55 109 
55 113 
55 117 
56 57 
56 58 
56 59 
56 60 
56 61 
56 62 
56 63 
56 69 
56 72 
56 73 
56 74 
56 75 
56 76 
56 77 
56 78 
56 84 
56 89 
56 99 
56 103 
56 107 
56 112 
56 114 
57 58 
57 59 
57 60 
57 61 
57 62 
57 63 
57 64 
57 67 
57 74 
57 79 
57 80 
57 81 
57 82 
57 83 
57 84 
57 94 
57 95 
57 96 
57 97 
57 98 
57 99 
58 59 
58 60 
58 61 
58 62 
58 63 
58 65 
58 67 
58 72 
58 77 
58 83 
58 85 
58 86 
58 87 
58 88 
58 89 
58 102 
58 104 
58 113 
58 117 
59 60 
59 61 
59 62 
59 63 
59 68 
59 77 
59 79 
59 80 
59 88 
59 90 
59 94 
59 98 
59 100 
59 101 
59 102 
59 103 
59 107 
59 111 
59 115 
59 116 
60 61 
60 62 
60 63 
60 70 
60 71 
60 75 
60 76 
60 83 
60 85 
60 91 
60 94 
60 97 
60 102 
60 105 
60 109 
60 110 
60 111 
60 114 
60 115 
61 62 
61 63 
61 68 
61 71 
61 73 
61 74 
61 84 
61 86 
61 88 
61 93 
61 96 
61 100 
61 108 
61 110 
61 112 
61 116 
62 63 
62 64 
62 65 
62 78 
62 87 
62 92 
62 99 
62 100 
62 101 
62 105 
62 106 
62 109 
62 110 
62 114 
62 116 
62 117 
63 70 
63 72 
63 78 
63 80 
63 82 
63 91 
63 93 
63 95 
63 98 
63 103 
63 106 
63 112 
63 113 
63 115 
63 117 
64 65 
64 66 
64 67 
64 68 
64 69 
64 70 
64 71 
64 79 
64 80 
64 81 
64 82 
64 83 
64 84 
64 87 
64 101 
64 106 
64 110 
64 114 
64 116 
64 117 
65 66 
65 67 
65 68 
65 69 
65 70 
65 71 
65 72 
65 78 
65 85 
65 86 
65 87 
65 88 
65 89 
65 92 
65 99 
65 100 
65 105 
65 109 
66 67 
66 68 
66 69 
66 70 
66 71 
66 73 
66 75 
66 79 
66 81 
66 85 
66 86 
66 90 
66 91 
66 92 
66 93 
66 95 
66 104 
66 105 
66 106 
66 107 
67 68 
67 69 
67 70 
67 71 
67 74 
67 77 
67 83 
67 94 
67 95 
67 96 
67 97 
67 98 
67 99 
67 102 
67 104 
67 113 
67 117 
68 69 
68 70 
68 71 
68 74 
68 80 
68 84 
68 86 
68 90 
68 93 
68 94 
68 100 
68 101 
68 102 
68 103 
68 108 
68 116 
69 70 
69 71 
69 76 
69 82 
69 84 
69 87 
69 89 
69 90 
69 96 
69 99 
69 103 
69 104 
69 107 
69 108 
69 109 
69 112 
69 114 
70 71 
70 76 
70 78 
70 82 
70 83 
70 91 
70 93 
70 94 
70 95 
70 103 
70 105 
70 110 
70 111 
70 115 
70 117 
71 73 
71 75 
71 85 
71 88 
71 96 
71 97 
71 100 
71 102 
71 109 
71 110 
71 112 
71 114 
71 115 
72 73 
72 74 
72 75 
72 76 
72 77 
72 78 
72 80 
72 85 
72 86 
72 87 
72 88 
72 89 
72 91 
72 98 
72 106 
72 112 
72 113 
73 74 
73 75 
73 76 
73 77 
73 78 
73 79 
73 85 
73 88 
73 90 
73 91 
73 92 
73 93 
73 96 
73 100 
73 110 
73 112 
74 75 
74 76 
74 77 
74 78 
74 84 
74 86 
74 93 
74 94 
74 95 
74 96 
74 97 
74 98 
74 99 
74 108 
74 116 
75 76 
75 77 
75 78 
75 81 
75 85 
75 86 
75 95 
75 97 
75 102 
75 104 
75 105 
75 106 
75 107 
75 109 
75 114 
75 115 
76 77 
76 78 
76 82 
76 83 
76 87 
76 90 
76 91 
76 94 
76 96 
76 104 
76 105 
76 108 
76 109 
76 110 
76 111 
77 78 
77 79 
77 83 
77 88 
77 98 
77 102 
77 104 
77 107 
77 111 
77 113 
77 115 
77 116 
77 117 
78 82 
78 92 
78 93 
78 95 
78 99 
78 100 
78 103 
78 105 
78 109 
78 115 
78 117 
79 80 
79 81 
79 82 
79 83 
79 84 
79 85 
79 88 
79 90 
79 91 
79 92 
79 93 
79 98 
79 107 
79 111 
79 115 
79 116 
80 81 
80 82 
80 83 
80 84 
80 90 
80 91 
80 94 
80 98 
80 100 
80 101 
80 102 
80 103 
80 106 
80 112 
80 113 
81 82 
81 83 
81 84 
81 86 
81 89 
81 92 
81 95 
81 97 
81 101 
81 104 
81 105 
81 106 
81 107 
81 108 
81 111 
81 113 
82 83 
82 84 
82 87 
82 90 
82 93 
82 95 
82 96 
82 103 
82 104 
82 108 
82 109 
82 115 
82 117 
83 84 
83 91 
83 94 
83 102 
83 104 
83 105 
83 110 
83 111 
83 113 
83 117 
84 86 
84 89 
84 93 
84 99 
84 103 
84 107 
84 108 
84 112 
84 114 
84 116 
85 86 
85 87 
85 88 
85 89 
85 90 
85 91 
85 92 
85 93 
85 97 
85 102 
85 109 
85 114 
85 115 
86 87 
86 88 
86 89 
86 93 
86 95 
86 104 
86 105 
86 106 
86 107 
86 108 
86 116 
87 88 
87 89 
87 90 
87 96 
87 101 
87 104 
87 106 
87 108 
87 109 
87 110 
87 114 
87 116 
87 117 
88 89 
88 96 
88 98 
88 100 
88 107 
88 110 
88 111 
88 112 
88 115 
88 116 
89 92 
89 97 
89 99 
89 101 
89 103 
89 107 
89 108 
89 111 
89 112 
89 113 
89 114 
90 91 
90 92 
90 93 
90 94 
90 96 
90 100 
90 101 
90 102 
90 103 
90 104 
90 108 
90 109 
91 92 
91 93 
91 94 
91 98 
91 105 
91 106 
91 110 
91 111 
91 112 
91 113 
92 93 
92 97 
92 99 
92 100 
92 101 
92 105 
92 108 
92 109 
92 111 
92 113 
93 95 
93 103 
93 108 
93 115 
93 116 
93 117 
94 95 
94 96 
94 97 
94 98 
94 99 
94 100 
94 101 
94 102 
94 103 
94 105 
94 110 
94 111 
95 96 
95 97 
95 98 
95 99 
95 103 
95 104 
95 105 
95 106 
95 107 
95 115 
95 117 
96 97 
96 98 
96 99 
96 100 
96 104 
96 108 
96 109 
96 110 
96 112 
97 98 
97 99 
97 101 
97 102 
97 108 
97 109 
97 111 
97 113 
97 114 
97 115 
98 99 
98 106 
98 107 
98 111 
98 112 
98 113 
98 115 
98 116 
99 100 
99 103 
99 105 
99 107 
99 109 
99 112 
99 114 
100 101 
100 102 
100 103 
100 105 
100 109 
100 110 
100 112 
101 102 
101 103 
101 106 
101 108 
101 110 
101 111 
101 113 
101 114 
101 116 
101 117 
102 103 
102 104 
102 109 
102 113 
102 114 
102 115 
102 117 
103 107 
103 112 
103 114 
103 115 
103 117 
104 105 
104 106 
104 107 
104 108 
104 109 
104 113 
104 117 
105 106 
105 107 
105 109 
105 110 
105 111 
106 107 
106 110 
106 112 
106 113 
106 114 
106 116 
106 117 
107 111 
107 112 
107 114 
107 115 
107 116 
108 109 
108 111 
108 113 
108 116 
109 114 
109 115 
110 111 
110 112 
110 114 
110 116 
110 117 
111 113 
111 115 
111 116 
112 113 
112 114 
113 117 
114 115 
114 116 
114 117 
115 116 
115 117 
116 117 
